12
40 1090 10
100 4150 15
170 3220 10
240 2300 20
310 1360 15
380 2430 10
450 3500 20
520 4580 15
600 3660 10
680 4740 20
760 3820 15
840 4900 10
0 240 60 510 170 870 320 110 740 410 1010 620 30
390 0 850 150 300 490 720 990 40 600 220 90 560
450 810 0 350 110 680 260 950 560 40 810 500 180
300 760 50 0 210 630 900 90 400 130 510 760 60
570 150 840 60 0 700 150 450 340 240 110 500 70
630 220 180 770 70 0 380 240 500 170 130 300 80
550 300 260 210 150 80 0 420 190 690 320 550 90
460 390 350 600 240 170 90 0 100 330 510 410 210
360 490 450 400 340 270 190 100 0 230 620 560 110
250 600 560 510 450 380 300 210 110 0 120 740 390
130 720 680 630 570 500 420 330 230 120 0 270 760
140 850 810 760 700 630 550 460 360 250 130 0 840
30 990 950 900 840 770 690 600 500 390 270 140 0
